NAME : mtspf.pid8617.gtsp.132417872.tour
COMMENT : Length = 132417872
COMMENT : Found by LKH [Keld Helsgaun] Fri Jan 24 18:33:48 2025
TYPE : TOUR
DIMENSION : 85
TOUR_SECTION
1
57
54
55
56
60
61
58
59
16
17
14
15
85
82
83
84
2
65
62
63
64
76
77
74
75
41
38
39
40
69
66
67
68
19
20
21
18
33
30
31
32
51
52
53
50
8
9
6
7
5
26
27
28
29
23
24
25
22
3
35
36
37
34
80
81
78
79
4
11
12
13
10
70
71
72
73
43
44
45
42
48
49
46
47
-1
EOF
